GLPSOL--GLPK LP/MIP Solver 5.0
Parameter(s) specified in the command line:
 --lp ../modeles/3_409.lp --log 3_409.log
Reading problem data from '../modeles/3_409.lp'...
1240 rows, 2460 columns, 8604 non-zeros
1227 integer variables, all of which are binary
3709 lines were read
GLPK Integer Optimizer 5.0
1240 rows, 2460 columns, 8604 non-zeros
1227 integer variables, all of which are binary
Preprocessing...
1218 constraint coefficient(s) were reduced
1240 rows, 2457 columns, 8601 non-zeros
1227 integer variables, all of which are binary
Scaling...
 A: min|aij| =  2.391e-05  max|aij| =  4.000e+00  ratio =  1.673e+05
GM: min|aij| =  4.945e-02  max|aij| =  2.022e+01  ratio =  4.090e+02
EQ: min|aij| =  2.445e-03  max|aij| =  1.000e+00  ratio =  4.090e+02
2N: min|aij| =  1.530e-03  max|aij| =  1.707e+00  ratio =  1.116e+03
Constructing initial basis...
Size of triangular part is 1240
Solving LP relaxation...
GLPK Simplex Optimizer 5.0
1240 rows, 2457 columns, 8601 non-zeros
      0: obj =   6.000000000e+00 inf =   1.645e+02 (7)
    116: obj =   4.999671210e-01 inf =   0.000e+00 (0)
*   442: obj =  -1.731988935e+00 inf =   3.245e-11 (0)
OPTIMAL LP SOLUTION FOUND
Integer optimization begins...
Long-step dual simplex will be used
+   442: mip =     not found yet >=              -inf        (1; 0)
+   460: >>>>>  -1.731507099e+00 >=  -1.731988935e+00 < 0.1% (10; 0)
+   464: >>>>>  -1.731988935e+00 >=  -1.731988935e+00 < 0.1% (7; 9)
+   464: mip =  -1.731988935e+00 >=     tree is empty   0.0% (0; 23)
INTEGER OPTIMAL SOLUTION FOUND
Time used:   0.0 secs
Memory used: 3.7 Mb (3881351 bytes)
